
Gurobi 8.1.1 (win64) logging started 11/27/19 12:37:15

Changed value of parameter LogFile to logs/drand/qp/drand-05-110-1.log
   Prev: gurobi.log  Default: 
Changed value of parameter LogToConsole to 0
   Prev: 1  Min: 0  Max: 1  Default: 1
Changed value of parameter TimeLimit to 3600.0
   Prev: 1e+100  Min: 0.0  Max: 1e+100  Default: 1e+100
Optimize a model with 1 rows, 243 columns and 1 nonzeros
Model has 5 quadratic constraints
Variable types: 0 continuous, 243 integer (243 binary)
Coefficient statistics:
  Matrix range     [1e+00, 1e+00]
  QMatrix range    [1e+00, 1e+00]
  Objective range  [1e+00, 1e+00]
  Bounds range     [1e+00, 1e+00]
  RHS range        [1e+00, 1e+00]
  QRHS range       [1e+00, 1e+00]
Found heuristic solution: objective 243.0000000
Presolve removed 1 rows and 1 columns
Presolve time: 0.00s
Presolved: 0 rows, 242 columns, 0 nonzeros
Variable types: 0 continuous, 242 integer (242 binary)

Root relaxation: objective 1.000000e+00, 0 iterations, 0.00 seconds

    Nodes    |    Current Node    |     Objective Bounds      |     Work
 Expl Unexpl |  Obj  Depth IntInf | Incumbent    BestBd   Gap | It/Node Time

     0     0    2.00000    0    2  243.00000    2.00000  99.2%     -    0s
H    0     0                       9.0000000    2.00000  77.8%     -    0s
     0     0    2.00000    0    2    9.00000    2.00000  77.8%     -    0s
     0     0    2.00000    0    2    9.00000    2.00000  77.8%     -    0s
H    0     0                       8.0000000    2.00000  75.0%     -    0s
H    0     0                       6.0000000    2.00000  66.7%     -    0s
     0     2    2.00000    0    2    6.00000    2.00000  66.7%     -    0s
H  412   163                       5.0000000    2.00000  60.0%   1.4    1s
   901   448    3.50000  109    1    5.00000    2.00000  60.0%   1.3    5s
  1047   548    4.00000   61    2    5.00000    2.56932  48.6%   3.9   11s
  1050   550    3.50000   28  902    5.00000    2.67653  46.5%   3.9   16s
  1053   552    4.00000   73 1057    5.00000    2.78006  44.4%   3.9   21s
  1056   554    4.00000   70 1088    5.00000    2.83791  43.2%   3.9   27s
  1058   555    3.00000   20 1078    5.00000    2.85593  42.9%   3.9   32s
  1060   557    4.00000    9 1032    5.00000    2.85775  42.8%   3.9   35s
  1063   559    4.00000   10 1042    5.00000    2.85930  42.8%   3.9   40s
  1065   560    4.00000   30  867    5.00000    2.87366  42.5%   3.9   45s
  1069   563    3.50000   39  929    5.00000    2.87457  42.5%   3.9   51s
  1072   565    4.00000   49  985    5.00000    2.87480  42.5%   3.8   55s
  1075   567    4.00000   42  958    5.00000    2.87703  42.5%   3.8   62s
  1077   568    4.00000  117  956    5.00000    2.87763  42.4%   3.8   65s
  1080   570    4.00000   93  991    5.00000    2.87789  42.4%   3.8   70s
  1082   571    4.00000   23  983    5.00000    2.88140  42.4%   3.8   76s
  1084   573    4.00000   50  942    5.00000    2.88634  42.3%   3.8   80s
  1087   575    4.00000   30  963    5.00000    2.88789  42.2%   3.8   85s
  1089   576    4.00000   68  917    5.00000    2.89291  42.1%   3.8   91s
  1091   577    4.00000   26  956    5.00000    2.89681  42.1%   3.8   95s
  1093   579    4.00000   85  936    5.00000    2.90237  42.0%   3.8  100s
  1096   581    4.00000   15  935    5.00000    2.90303  41.9%   3.8  106s
  1098   582    4.00000   83  939    5.00000    2.90863  41.8%   3.7  110s
  1100   583    4.00000  108  943    5.00000    2.90931  41.8%   3.7  115s
  1101   584    4.00000   77  946    5.00000    2.91585  41.7%   3.7  120s
  1103   585    4.00000   19  955    5.00000    2.92521  41.5%   3.7  127s
  1104   586    4.00000   51  976    5.00000    2.92654  41.5%   3.7  130s
  1106   587    3.50000   31  970    5.00000    2.93534  41.3%   3.7  135s
  1108   589    3.50000   33  951    5.00000    2.94267  41.1%   3.7  140s
  1110   590    4.00000   43  964    5.00000    2.94887  41.0%   3.7  146s
  1111   591    4.00000   19  979    5.00000    2.95364  40.9%   3.7  150s
  1113   592    4.00000   63  928    5.00000    2.95948  40.8%   3.7  156s
  1115   593    3.00000    7  935    5.00000    2.96479  40.7%   3.7  161s
  1117   595    4.00000  122  946    5.00000    2.96978  40.6%   3.7  168s
  1118   595    4.00000   25  928    5.00000    2.97018  40.6%   3.7  170s
  1120   597    3.00000   18  925    5.00000    2.97450  40.5%   3.7  176s
  1121   597    4.00000   62  955    5.00000    2.97748  40.5%   3.7  181s
  1123   599    4.00000   34  911    5.00000    2.98184  40.4%   3.7  189s
  1124   599    4.00000   30  919    5.00000    2.98191  40.4%   3.7  190s
  1125   600    4.00000  109  922    5.00000    2.98538  40.3%   3.7  195s
  1127   601    4.00000   22  897    5.00000    2.98984  40.2%   3.7  201s
  1129   603    4.00000   79  899    5.00000    2.99069  40.2%   3.6  206s
  1131   604    4.00000   84  830    5.00000    2.99398  40.1%   3.6  212s
  1133   605    3.50000   36  904    5.00000    2.99712  40.1%   3.6  219s
  1134   606    3.00000   26  925    5.00000    2.99721  40.1%   3.6  220s
  1135   607    3.00237   24  843    5.00000    3.00237  40.0%   3.6  226s
  1137   608    4.00000  108  875    5.00000    3.00700  39.9%   3.6  232s
  1139   609    4.00000   19  897    5.00000    3.01067  39.8%   3.6  238s
  1140   610    4.00000   51  891    5.00000    3.01071  39.8%   3.6  240s
  1141   611    4.00000   99  953    5.00000    3.01474  39.7%   3.6  245s
  1143   612    4.00000   45  959    5.00000    3.01849  39.6%   3.6  251s
  1145   613    4.00000    9  929    5.00000    3.02211  39.6%   3.6  258s
  1147   615    4.00000   61  929    5.00000    3.02601  39.5%   3.6  264s
  1148   615    4.00000   49  939    5.00000    3.02618  39.5%   3.6  266s
  1149   616    4.00000   98  913    5.00000    3.02865  39.4%   3.6  271s
  1151   617    4.00000  106  914    5.00000    3.03170  39.4%   3.6  278s
  1152   618    4.00000   19  933    5.00000    3.03198  39.4%   3.6  281s
  1153   619    4.00000   73  895    5.00000    3.03434  39.3%   3.6  286s
  1155   620    4.00000   42  943    5.00000    3.03712  39.3%   3.6  293s
  1156   621    4.00000   70  914    5.00000    3.03731  39.3%   3.6  295s
  1157   621    4.00000   71  909    5.00000    3.03894  39.2%   3.6  300s
  1159   623    3.50000   28  937    5.00000    3.04136  39.2%   3.6  307s
  1160   623    4.00000    9  882    5.00000    3.04165  39.2%   3.5  310s
  1161   624    3.04418   23  933    5.00000    3.04418  39.1%   3.5  315s
  1163   625    4.00000   10  921    5.00000    3.04584  39.1%   3.5  322s
  1164   626    4.00000   47  911    5.00000    3.04597  39.1%   3.5  325s
  1165   627    4.00000   30  961    5.00000    3.04697  39.1%   3.5  330s
  1167   628    4.00000   18  926    5.00000    3.04850  39.0%   3.5  338s
  1168   629    4.00000   21  922    5.00000    3.04859  39.0%   3.5  340s
  1169   629    3.50000   39  905    5.00000    3.04938  39.0%   3.5  345s
  1171   631    3.05020   17  891    5.00000    3.05020  39.0%   3.5  352s
  1172   631    4.00000   49  925    5.00000    3.05032  39.0%   3.5  355s
  1173   632    4.00000   40  868    5.00000    3.05093  39.0%   3.5  360s
  1175   633    4.00000   42  910    5.00000    3.05144  39.0%   3.5  367s
  1177   635    4.00000  117  919    5.00000    3.05208  39.0%   3.5  374s
  1178   635    4.00000   53  908    5.00000    3.05213  39.0%   3.5  376s
  1179   636    4.00000   62  922    5.00000    3.05256  38.9%   3.5  381s
  1181   637    4.00000   94  871    5.00000    3.05302  38.9%   3.5  389s
  1182   638    4.00000   23  873    5.00000    3.05303  38.9%   3.5  390s
  1183   639    4.00000   33  907    5.00000    3.05343  38.9%   3.5  395s
  1185   640    4.00000   80  970    5.00000    3.05387  38.9%   3.5  403s
  1186   641    3.50000   39  980    5.00000    3.05389  38.9%   3.5  405s
  1187   641    4.00000   30  966    5.00000    3.05415  38.9%   3.5  410s
  1189   643    4.00000   68  940    5.00000    3.05456  38.9%   3.5  419s
  1190   643    4.00000   53  937    5.00000    3.05458  38.9%   3.5  421s
  1191   644    4.00000   26  938    5.00000    3.05487  38.9%   3.5  426s
  1193   645    4.00000   85  949    5.00000    3.05514  38.9%   3.5  433s
  1194   646    4.00000    4  944    5.00000    3.05517  38.9%   3.4  435s
  1195   647    4.00000   53  935    5.00000    3.05542  38.9%   3.4  440s
  1197   648    3.50000   27  963    5.00000    3.05580  38.9%   3.4  448s
  1198   649    4.00000   83  959    5.00000    3.05583  38.9%   3.4  450s
  1199   649    4.00000   20  976    5.00000    3.05608  38.9%   3.4  456s
  1201   651    4.00000   77  954    5.00000    3.05630  38.9%   3.4  463s
  1202   651    4.00000   20  962    5.00000    3.05633  38.9%   3.4  466s
  1203   652    4.00000   19  984    5.00000    3.05648  38.9%   3.4  471s
  1205   653    3.50000   33  939    5.00000    3.05665  38.9%   3.4  478s
  1206   654    3.50000   31  983    5.00000    3.05667  38.9%   3.4  480s
  1207   655    4.00000    3  915    5.00000    3.05679  38.9%   3.4  485s
  1209   656    4.00000    5  890    5.00000    3.05693  38.9%   3.4  492s
  1211   657    4.00000   19  944    5.00000    3.05707  38.9%   3.4  498s
  1212   658    4.00000   70  962    5.00000    3.05707  38.9%   3.4  500s
  1213   659    4.00000   63  931    5.00000    3.05727  38.9%   3.4  506s
  1215   660    3.05743    7  953    5.00000    3.05743  38.9%   3.4  513s
  1217   661    4.00000  122  951    5.00000    3.05755  38.8%   3.4  519s
  1218   662    4.00000   25  973    5.00000    3.05757  38.8%   3.4  522s
  1219   663    4.00000   13  992    5.00000    3.05774  38.8%   3.4  528s
  1220   663    3.05776   18  987    5.00000    3.05776  38.8%   3.4  530s
  1221   664    4.00000   62  962    5.00000    3.05789  38.8%   3.4  535s
  1223   665    4.00000   34  985    5.00000    3.05803  38.8%   3.4  542s
  1225   667    4.00000  109  981    5.00000    3.05817  38.8%   3.4  549s
  1226   667    3.05818   14  986    5.00000    3.05818  38.8%   3.4  551s
  1227   668    4.00000   22  953    5.00000    3.05828  38.8%   3.4  556s
  1229   669    4.00000   79  954    5.00000    3.05842  38.8%   3.3  564s
  1230   670    4.00000   91  954    5.00000    3.05843  38.8%   3.3  567s
  1231   671    4.00000   84  967    5.00000    3.05850  38.8%   3.3  571s
  1233   672    3.50000   36 1008    5.00000    3.05859  38.8%   3.3  579s
  1234   673    3.05860   26  975    5.00000    3.05860  38.8%   3.3  581s
  1235   673    3.05863   24 1002    5.00000    3.05863  38.8%   3.3  585s
  1237   675    4.00000  108  902    5.00000    3.05871  38.8%   3.3  593s
  1239   676    4.00000   19  967    5.00000    3.05876  38.8%   3.3  599s
  1240   677    4.00000   51  957    5.00000    3.05877  38.8%   3.3  601s
  1241   677    4.00000   99  949    5.00000    3.05879  38.8%   3.3  605s
  1243   679    4.00000   45  966    5.00000    3.05884  38.8%   3.3  611s
  1245   680    4.00000    9  979    5.00000    3.05884  38.8%   3.3  615s
  1251   685    4.00000  106  593    5.00000    3.05884  38.8%   135  622s
  1252   686    4.00000   19  872    5.00000    3.05884  38.8%   135  628s
  1253   687    4.00000   73  796    5.00000    3.05884  38.8%   135  635s
  1254   687    4.00000   11  972    5.00000    3.05884  38.8%   135  644s
  1255   688    4.00000   42  928    5.00000    3.05884  38.8%   135  650s
  1256   689    4.00000   70  934    5.00000    3.05884  38.8%   134  657s
  1257   689    4.00000   71  981    5.00000    3.05884  38.8%   134  665s
  1258   690    3.05884   20  974    5.00000    3.05884  38.8%   134  673s
  1259   691    3.50000   28  956    5.00000    3.05884  38.8%   134  679s
  1260   691    4.00000    9  977    5.00000    3.05888  38.8%   134  685s
  1262   693    4.00000   43  979    5.00000    3.05897  38.8%   134  692s
  1263   693    4.00000   10  981    5.00000    3.05899  38.8%   134  695s
  1264   694    4.00000   47  962    5.00000    3.05909  38.8%   134  700s
  1266   695    4.00000   19  950    5.00000    3.05918  38.8%   133  708s
  1268   697    4.00000   21  958    5.00000    3.05925  38.8%   133  714s
  1269   697    3.50000   39  960    5.00000    3.05926  38.8%   133  717s
  1270   698    4.00000   36  923    5.00000    3.05932  38.8%   133  721s
  1272   699    4.00000   49  947    5.00000    3.05938  38.8%   133  728s
  1273   700    4.00000   40  935    5.00000    3.05938  38.8%   133  730s
  1275   701    4.00000   42  923    5.00000    3.05942  38.8%   132  736s
  1276   702    4.00000  114  928    5.00000    3.05946  38.8%   132  742s
  1277   703    4.00000  117  995    5.00000    3.05952  38.8%   132  747s
  1279   704    4.00000   62  955    5.00000    3.05955  38.8%   132  752s
  1281   705    4.00000   94  997    5.00000    3.05960  38.8%   132  759s
  1282   706    4.00000   23  966    5.00000    3.05961  38.8%   132  760s
  1283   707    4.00000   33  930    5.00000    3.05966  38.8%   132  766s
  1284   707    4.00000   50  952    5.00000    3.05972  38.8%   132  770s
  1286   709    3.50000   39  923    5.00000    3.05976  38.8%   131  776s
  1288   710    4.00000  103  915    5.00000    3.05983  38.8%   131  783s
  1289   711    4.00000   68  931    5.00000    3.05984  38.8%   131  785s
  1291   712    4.00000   26  983    5.00000    3.05990  38.8%   131  791s
  1292   713    4.00000   81  989    5.00000    3.05994  38.8%   131  795s
  1294   714    4.00000    4  946    5.00000    3.05998  38.8%   131  802s
  1296   715    4.00000   15  985    5.00000    3.06003  38.8%   130  808s
  1298   717    4.00000   83  968    5.00000    3.06007  38.8%   130  814s
  1299   717    4.00000   20  970    5.00000    3.06007  38.8%   130  815s
  1300   718    4.00000  108  968    5.00000    3.06012  38.8%   130  820s
  1302   719    4.00000   20  988    5.00000    3.06016  38.8%   130  826s
  1304   721    4.00000   51  955    5.00000    3.06020  38.8%   130  833s
  1306   722    3.50000   31  995    5.00000    3.06024  38.8%   129  839s
  1307   723    4.00000    3  985    5.00000    3.06026  38.8%   129  844s
  1308   723    3.50000   33  998    5.00000    3.06026  38.8%   129  845s
  1310   725    4.00000   43  950    5.00000    3.06029  38.8%   129  851s
  1314   728    4.00000   46  593    5.00000    3.06029  38.8%   176  855s
  1315   729    3.06029    7  875    5.00000    3.06029  38.8%   176  862s
  1316   730    3.06029   24  851    5.00000    3.06029  38.8%   176  869s
  1317   730    4.00000  122  951    5.00000    3.06029  38.8%   176  876s
  1318   731    4.00000   25  946    5.00000    3.06029  38.8%   175  883s
  1319   732    4.00000   13  967    5.00000    3.06029  38.8%   175  893s
  1320   732    3.06029   18  965    5.00000    3.06029  38.8%   175  903s
  1321   733    4.00000   62  996    5.00000    3.06029  38.8%   175  912s
  1322   734    4.00000   99  952    5.00000    3.06029  38.8%   175  918s
  1323   734    4.00000   34 1007    5.00000    3.06033  38.8%   175  925s
  1325   736    4.00000  109  975    5.00000    3.06040  38.8%   175  933s
  1326   736    3.06040   14  995    5.00000    3.06040  38.8%   174  935s
  1327   737    4.00000   22  917    5.00000    3.06046  38.8%   174  941s
  1329   738    4.00000   79  971    5.00000    3.06051  38.8%   174  948s
  1330   739    4.00000   91  971    5.00000    3.06052  38.8%   174  951s
  1331   740    4.00000   84  962    5.00000    3.06055  38.8%   174  956s
  1333   741    3.50000   36  997    5.00000    3.06058  38.8%   173  964s
  1334   742    3.06058   26 1002    5.00000    3.06058  38.8%   173  966s
  1335   742    3.06061   24  990    5.00000    3.06061  38.8%   173  971s
  1337   744    4.00000  108  948    5.00000    3.06063  38.8%   173  977s
  1339   745    4.00000   19  985    5.00000    3.06067  38.8%   173  984s
  1340   746    4.00000   51  986    5.00000    3.06067  38.8%   173  986s
  1341   746    4.00000   99  974    5.00000    3.06071  38.8%   172  992s
  1343   748    4.00000   45  976    5.00000    3.06076  38.8%   172 1000s
  1345   749    4.00000    9  944    5.00000    3.06080  38.8%   172 1006s
  1347   750    4.00000   61  962    5.00000    3.06084  38.8%   172 1013s
  1348   751    4.00000   49  971    5.00000    3.06084  38.8%   172 1015s
  1350   752    3.50000   28  974    5.00000    3.06087  38.8%   171 1021s
  1351   753    4.00000  106  986    5.00000    3.06090  38.8%   171 1025s
  1354   755    4.00000   11  980    5.00000    3.06090  38.8%   171 1030s
  1358   759    3.06090   20  593    5.00000    3.06090  38.8%   207 1035s
  1359   760    3.50000   28  897    5.00000    3.06090  38.8%   207 1042s
  1360   761    4.00000    9  910    5.00000    3.06090  38.8%   207 1049s
  1361   761    3.06090   23  957    5.00000    3.06090  38.8%   207 1057s
  1362   762    4.00000   43  941    5.00000    3.06090  38.8%   207 1064s
  1363   763    4.00000   10  929    5.00000    3.06090  38.8%   207 1072s
  1364   763    4.00000   47  936    5.00000    3.06090  38.8%   207 1081s
  1365   764    4.00000   30  959    5.00000    3.06090  38.8%   206 1090s
  1366   765    4.00000   19  985    5.00000    3.06090  38.8%   206 1097s
  1367   765    4.00000   18  988    5.00000    3.06090  38.8%   206 1102s
  1368   766    4.00000   21  939    5.00000    3.06091  38.8%   206 1106s
  1369   767    3.50000   39  963    5.00000    3.06096  38.8%   206 1111s
  1371   768    3.06101   17  971    5.00000    3.06101  38.8%   205 1119s
  1372   769    4.00000   49  958    5.00000    3.06101  38.8%   205 1120s
  1373   769    4.00000   40  982    5.00000    3.06104  38.8%   205 1126s
  1375   771    4.00000   42  981    5.00000    3.06108  38.8%   205 1134s
  1376   771    4.00000  114  996    5.00000    3.06108  38.8%   205 1136s
  1377   772    4.00000  117 1019    5.00000    3.06112  38.8%   205 1141s
  1379   773    4.00000   62 1004    5.00000    3.06116  38.8%   204 1148s
  1380   774    4.00000   93  996    5.00000    3.06116  38.8%   204 1150s
  1381   775    4.00000   94  986    5.00000    3.06121  38.8%   204 1157s
  1383   776    4.00000   33 1019    5.00000    3.06126  38.8%   204 1164s
  1384   777    4.00000   50 1027    5.00000    3.06126  38.8%   204 1166s
  1385   777    4.00000   80 1016    5.00000    3.06128  38.8%   203 1171s
  1387   779    4.00000   30  993    5.00000    3.06132  38.8%   203 1179s
  1388   779    4.00000  103 1004    5.00000    3.06132  38.8%   203 1182s
  1389   780    4.00000   68  979    5.00000    3.06135  38.8%   203 1187s
  1391   781    4.00000   26 1019    5.00000    3.06138  38.8%   203 1193s
  1392   782    4.00000   81 1017    5.00000    3.06138  38.8%   202 1195s
  1393   783    4.00000   85  979    5.00000    3.06140  38.8%   202 1200s
  1395   784    4.00000   53 1021    5.00000    3.06142  38.8%   202 1206s
  1400   788    4.00000  108  593    5.00000    3.06142  38.8%   237 1212s
  1401   789    4.00000   77  928    5.00000    3.06142  38.8%   237 1219s
  1402   790    4.00000   20  865    5.00000    3.06142  38.8%   236 1226s
  1403   790    4.00000   19  955    5.00000    3.06142  38.8%   236 1234s
  1404   791    4.00000   51  990    5.00000    3.06142  38.8%   236 1242s
  1405   792    3.50000   33  982    5.00000    3.06142  38.8%   236 1251s
  1406   792    3.50000   31  980    5.00000    3.06142  38.8%   236 1261s
  1407   793    4.00000    3  981    5.00000    3.06142  38.8%   236 1270s
  1408   794    3.50000   33  986    5.00000    3.06142  38.8%   235 1276s
  1409   794    4.00000    5 1032    5.00000    3.06142  38.8%   235 1285s
  1411   796    4.00000   19 1011    5.00000    3.06148  38.8%   235 1294s
  1412   796    4.00000   70 1002    5.00000    3.06149  38.8%   235 1296s
  1413   797    4.00000   63  985    5.00000    3.06150  38.8%   235 1301s
  1415   798    3.06154    7  981    5.00000    3.06154  38.8%   234 1309s
  1416   799    3.06154   24  980    5.00000    3.06154  38.8%   234 1311s
  1417   800    4.00000  122  992    5.00000    3.06156  38.8%   234 1316s
  1419   801    4.00000   13  972    5.00000    3.06159  38.8%   234 1323s
  1420   802    3.06159   18 1000    5.00000    3.06159  38.8%   233 1326s
  1421   802    4.00000   62  981    5.00000    3.06161  38.8%   233 1331s
  1424   806    4.00000   30    2    5.00000    3.06161  38.8%   261 1335s
  1427   808    4.00000   22  930    5.00000    3.06161  38.8%   260 1345s
  1428   809    4.00000   39  846    5.00000    3.06161  38.8%   260 1352s
  1429   809    4.00000   79  957    5.00000    3.06161  38.8%   260 1360s
  1430   810    4.00000   91  984    5.00000    3.06161  38.8%   260 1367s
  1431   811    4.00000   84  984    5.00000    3.06161  38.8%   259 1376s
  1432   811    4.00000  103  983    5.00000    3.06161  38.8%   259 1385s
  1433   812    3.50000   36  982    5.00000    3.06161  38.8%   259 1395s
  1434   813    3.06161   26  990    5.00000    3.06161  38.8%   259 1402s
  1435   813    3.06161   24  993    5.00000    3.06161  38.8%   259 1408s
  1436   814    4.00000   13 1008    5.00000    3.06163  38.8%   259 1412s
  1437   815    4.00000  108  991    5.00000    3.06167  38.8%   258 1417s
  1438   815    4.00000   66  981    5.00000    3.06167  38.8%   258 1420s
  1439   816    4.00000   19  990    5.00000    3.06171  38.8%   258 1427s
  1440   817    4.00000   51  975    5.00000    3.06172  38.8%   258 1431s
  1442   818    3.06175   24  987    5.00000    3.06175  38.8%   258 1440s
  1444   819    4.00000   44  996    5.00000    3.06176  38.8%   257 1446s
  1448   823    4.00000   49  593    5.00000    3.06176  38.8%   281 1450s
  1449   824    4.00000   98  930    5.00000    3.06176  38.8%   281 1457s
  1450   825    3.50000   28  918    5.00000    3.06176  38.8%   281 1465s
  1451   825    4.00000  106  957    5.00000    3.06176  38.8%   281 1473s
  1452   826    4.00000   19  976    5.00000    3.06176  38.8%   281 1481s
  1453   827    4.00000   73  995    5.00000    3.06176  38.8%   281 1491s
  1454   827    4.00000   11  966    5.00000    3.06176  38.8%   280 1500s
  1455   828    4.00000   42  971    5.00000    3.06176  38.8%   280 1509s
  1456   829    4.00000   70  998    5.00000    3.06176  38.8%   280 1515s
  1457   829    4.00000   71 1010    5.00000    3.06176  38.8%   280 1523s
  1458   830    3.06177   20  984    5.00000    3.06177  38.8%   280 1526s
  1459   831    3.50000   28 1010    5.00000    3.06181  38.8%   279 1532s
  1460   831    4.00000    9 1003    5.00000    3.06182  38.8%   279 1535s
  1461   832    3.06186   23 1007    5.00000    3.06186  38.8%   279 1541s
  1463   833    4.00000   10  967    5.00000    3.06189  38.8%   279 1548s
  1464   834    4.00000   47  968    5.00000    3.06189  38.8%   278 1551s
  1465   835    4.00000   30 1010    5.00000    3.06191  38.8%   278 1556s
  1467   836    4.00000   18 1003    5.00000    3.06194  38.8%   278 1562s
  1470   839    4.00000   36    2    5.00000    3.06194  38.8%   303 1566s
  1473   841    4.00000   40  930    5.00000    3.06194  38.8%   302 1576s
  1474   842    3.06194   17  865    5.00000    3.06194  38.8%   302 1583s
  1475   842    4.00000   42  955    5.00000    3.06194  38.8%   302 1591s
  1476   843    4.00000  114  988    5.00000    3.06194  38.8%   302 1598s
  1477   844    4.00000  117  980    5.00000    3.06194  38.8%   301 1609s
  1478   844    4.00000   53  993    5.00000    3.06194  38.8%   301 1619s
  1479   845    4.00000   62 1013    5.00000    3.06194  38.8%   301 1629s
  1480   846    4.00000   93 1003    5.00000    3.06194  38.8%   301 1634s
  1481   846    4.00000   94 1001    5.00000    3.06194  38.8%   301 1641s
  1482   847    4.00000   23 1005    5.00000    3.06194  38.8%   300 1647s
  1483   848    4.00000   33  997    5.00000    3.06197  38.8%   300 1653s
  1484   848    4.00000   50 1003    5.00000    3.06197  38.8%   300 1655s
  1485   849    4.00000   80  999    5.00000    3.06199  38.8%   300 1661s
  1486   850    3.50000   39  980    5.00000    3.06200  38.8%   300 1668s
  1487   850    4.00000   30  982    5.00000    3.06201  38.8%   299 1673s
  1488   851    4.00000  103  982    5.00000    3.06201  38.8%   299 1675s
  1489   852    4.00000   68  982    5.00000    3.06201  38.8%   299 1686s
  1490   855    3.07014  122  947    5.00000    3.06202  38.8%   328 1711s
  1494   856    3.83286  123  921    5.00000    3.07146  38.6%   336 1724s
  1496   857    3.07222  124  932    5.00000    3.07156  38.6%   338 1726s
  1498   857    3.86713  124  927    5.00000    3.07222  38.6%   341 1734s
  1500   857    3.07354  125  913    5.00000    3.07226  38.6%   343 1736s
  1503   858    3.85109  125  964    5.00000    3.07354  38.5%   348 1745s
  1505   856    3.07416  126  903    5.00000    3.07416  38.5%   349 1752s
  1508   857    3.07440  127  927    5.00000    3.07440  38.5%   355 1762s
  1512   858    3.07599  128  921    5.00000    3.07599  38.5%   363 1775s
  1516   859    3.07723  129  903    5.00000    3.07723  38.5%   368 1785s
  1520   860    3.07920  130  873    5.00000    3.07920  38.4%   375 1794s
  1525   860    3.07998  131  875    5.00000    3.07998  38.4%   378 1802s
  1528   861    3.08024  132  860    5.00000    3.08024  38.4%   384 1811s
  1534   861    3.08092  133  855    5.00000    3.08092  38.4%   387 1820s
  1538   861    3.08127  134  844    5.00000    3.08127  38.4%   391 1827s
  1542   862    3.08155  135  844    5.00000    3.08155  38.4%   397 1836s
  1550   861    3.08203  136  839    5.00000    3.08203  38.4%   399 1845s
  1556   859    3.08239  137  809    5.00000    3.08239  38.4%   402 1850s
  1564   860    3.08443  138  807    5.00000    3.08443  38.3%   408 1857s
  1571   858    3.08526  139  818    5.00000    3.08526  38.3%   413 1865s
  1580   859    3.08603  140  813    5.00000    3.08603  38.3%   415 1872s
  1592   856    3.08668  141  795    5.00000    3.08668  38.3%   418 1878s
  1605   854    3.08851  142  796    5.00000    3.08851  38.2%   420 1884s
  1619   851    3.09046  143  789    5.00000    3.09046  38.2%   421 1891s
  1635   845    3.09170  144  794    5.00000    3.09170  38.2%   424 1897s
  1652   842    3.09220  145  792    5.00000    3.09220  38.2%   424 1902s
  1671   837    3.09288  146  771    5.00000    3.09288  38.1%   424 1908s
  1692   835    3.09420  147  768    5.00000    3.09420  38.1%   424 1913s
  1715   826    3.09618  148  763    5.00000    3.09618  38.1%   423 1920s
  1740   820    3.09811  149  760    5.00000    3.09811  38.0%   421 1925s
  1768   809    3.10013  150  763    5.00000    3.10013  38.0%   418 1932s
  1784   806    3.10014  151  762    5.00000    3.10014  38.0%   421 1941s
  1791   808    3.10190  153  745    5.00000    3.10190  38.0%   426 1947s
  1797   810    3.90845  154  792    5.00000    3.10352  37.9%   434 1953s
  1809   815     cutoff  155         5.00000    3.10539  37.9%   435 1962s
  1821   817    3.10647  157  742    5.00000    3.10647  37.9%   437 1967s
  1847   832    3.10782  158  741    5.00000    3.10782  37.8%   435 1975s
  1855   831    3.10923  160  737    5.00000    3.10923  37.8%   439 1981s
  1867   841     cutoff  161         5.00000    3.11263  37.7%   442 1990s
  1878   845    3.11264  163  714    5.00000    3.11264  37.7%   445 1998s
  1894   846    3.11466  165  713    5.00000    3.11466  37.7%   447 2008s
  1915   859    3.11568  167  687    5.00000    3.11568  37.7%   451 2017s
  1924   858    3.11709  169  668    5.00000    3.11709  37.7%   455 2025s
  1938   867    3.96913  172  712    5.00000    3.12285  37.5%   461 2033s
  1952   867    3.12526  174  632    5.00000    3.12526  37.5%   461 2042s
  1974   878    3.12765  176  635    5.00000    3.12765  37.4%   463 2052s
  1990   886    3.13730  179  653    5.00000    3.13730  37.3%   467 2064s
  2006   878    3.97554  181  651    5.00000    3.14122  37.2%   470 2075s
  2025   881    3.14831  185  617    5.00000    3.14831  37.0%   474 2088s
  2040   883    3.15774  188  604    5.00000    3.15774  36.8%   479 2099s
  2063   883    3.16816  192  575    5.00000    3.16816  36.6%   482 2109s
  2095   883    3.17901  199  549    5.00000    3.17901  36.4%   483 2120s
  2121   887     cutoff  205         5.00000    3.20891  35.8%   486 2131s
  2172   887     cutoff  221         5.00000    3.28366  34.3%   482 2141s
  2257   860    3.76202  256  182    5.00000    3.76202  24.8%   468 2155s
  2300   852     cutoff  125         5.00000    3.87275  22.5%   467 2168s
  2326   844    3.94430  139  752    5.00000    3.87839  22.4%   469 2183s
  2361   836     cutoff  127         5.00000    3.88544  22.3%   471 2199s
  2385   830    3.91399  172  345    5.00000    3.89233  22.2%   476 2213s
  2421   829    3.90902  134  906    5.00000    3.89462  22.1%   476 2229s
  2451   842    3.94143  147  817    5.00000    3.89462  22.1%   478 2244s
  2487   831    3.99659  167  676    5.00000    3.89580  22.1%   477 2258s
  2540   815    3.95798  155  671    5.00000    3.89731  22.1%   475 2274s
  2588   815    3.92359  154  797    5.00000    3.90617  21.9%   474 2292s
  2626   828     cutoff  128         5.00000    3.90768  21.8%   474 2308s
  2675   826    3.96605  149  788    5.00000    3.90924  21.8%   471 2326s
  2730   839    3.92776  152  779    5.00000    3.91280  21.7%   468 2346s
  2771   838    3.92955  139  839    5.00000    3.91507  21.7%   467 2365s
  2820   843     cutoff  136         5.00000    3.91656  21.7%   468 2384s
  2883   816     cutoff  165         5.00000    3.91933  21.6%   464 2402s
  2933   781     cutoff  152         5.00000    3.92332  21.5%   462 2421s
  2999   725     cutoff  138         5.00000    3.93088  21.4%   458 2435s
  3056   683     cutoff  144         5.00000    3.93725  21.3%   454 2455s
  3119   636     cutoff  159         5.00000    3.94133  21.2%   452 2460s
  3161   580     cutoff  175         5.00000    3.94894  21.0%   448 2471s
  3214   527     cutoff  176         5.00000    3.95394  20.9%   444 2478s
  3272   471     cutoff  160         5.00000    3.95765  20.8%   439 2489s
  3331   418     cutoff  161         5.00000    3.96377  20.7%   435 2492s
  3378   361     cutoff  157         5.00000    3.96775  20.6%   430 2499s
  3427   306     cutoff  162         5.00000    3.97223  20.6%   427 2505s
  3555   163     cutoff  152         5.00000    3.99043  20.2%   415 2511s

Cutting planes:
  Flow cover: 19
  Zero half: 20
  Mod-K: 296

Explored 3572 nodes (1480970 simplex iterations) in 2511.59 seconds
Thread count was 4 (of 4 available processors)

Solution count 5: 5 6 8 ... 243

Optimal solution found (tolerance 1.00e-04)
Best objective 5.000000000000e+00, best bound 5.000000000000e+00, gap 0.0000%
Warning: Q constraint 0 doesn't have a name
